lattice_vector     15.55634919       0.00000000       0.00000000
lattice_vector      0.00000000       7.77817459       0.00000000
lattice_vector      0.00000000       0.00000000      20.50000000

   atom     14.33128669      7.77817459      0.63375000 H
   constrain_relaxation .true.
   atom      1.22506250      7.77817459      0.63375000 H
   constrain_relaxation .true.
   atom     14.33128669      3.88908730      0.63375000 H
   constrain_relaxation .true.
   atom      1.22506250      3.88908730      0.63375000 H
   constrain_relaxation .true.
   atom      2.66402480      7.77817459      0.63375000 H
   constrain_relaxation .true.
   atom      5.11414979      7.77817459      0.63375000 H
   constrain_relaxation .true.
   atom      2.66402480      3.88908730      0.63375000 H
   constrain_relaxation .true.
   atom      5.11414979      3.88908730      0.63375000 H
   constrain_relaxation .true.
   atom      6.55311209      7.77817459      0.63375000 H
   constrain_relaxation .true.
   atom      9.00323709      7.77817459      0.63375000 H
   constrain_relaxation .true.
   atom      6.55311209      3.88908730      0.63375000 H
   constrain_relaxation .true.
   atom      9.00323709      3.88908730      0.63375000 H
   constrain_relaxation .true.
   atom     10.44219939      7.77817459      0.63375000 H
   constrain_relaxation .true.
   atom     12.89232439      7.77817459      0.63375000 H
   constrain_relaxation .true.
   atom     10.44219939      3.88908730      0.63375000 H
   constrain_relaxation .true.
   atom     12.89232439      3.88908730      0.63375000 H
   constrain_relaxation .true.
   atom     15.55634919      7.77817459      1.50000000 Si
   constrain_relaxation .true.
   atom     15.55634919      3.88908730      1.50000000 Si
   constrain_relaxation .true.
   atom      3.88908730      7.77817459      1.50000000 Si
   constrain_relaxation .true.
   atom      3.88908730      3.88908730      1.50000000 Si
   constrain_relaxation .true.
   atom      7.77817459      7.77817459      1.50000000 Si
   constrain_relaxation .true.
   atom      7.77817459      3.88908730      1.50000000 Si
   constrain_relaxation .true.
   atom     11.66726189      7.77817459      1.50000000 Si
   constrain_relaxation .true.
   atom     11.66726189      3.88908730      1.50000000 Si
   constrain_relaxation .true.
   atom      0.04001638      1.95981550      2.96677987 Si
     velocity      2.33210027      1.05767749      0.03180255
   atom     15.47232627      5.75019536      2.93000211 Si
     velocity     -5.10167968     -1.35922755     -1.29480534
   atom      3.91182318      1.90913566      2.71879871 Si
     velocity      3.37577029      5.18303586     -2.07146661
   atom      3.85227224      5.81511395      2.80375686 Si
     velocity     -3.99264989      0.55505200     -1.46803839
   atom      7.73111336      2.00466430      2.94165878 Si
     velocity     -2.74547305     -2.82596192     -0.57460867
   atom      7.73394596      5.85831978      2.95980935 Si
     velocity      4.58344796      0.65942275      0.49368532
   atom     11.74598664      1.92530608      2.80840509 Si
     velocity      0.22160609     -6.00610038      1.08339015
   atom     11.72652247      5.82809633      2.83375080 Si
     velocity      2.91414047      2.28721509     -7.55946224
   atom      2.08188233      1.95519197      4.21218860 Si
     velocity      1.33287741     -2.96113975     -2.09292252
   atom      1.99668404      5.83026396      4.23751857 Si
     velocity     -4.46984518     -0.18825537     -2.10209563
   atom      5.67586081      2.05660766      4.25324943 Si
     velocity      5.76161807     -0.28671398     -1.37463019
   atom      5.68453723      5.91582762      4.23739849 Si
     velocity     -0.08840947      2.70053839      2.42570493
   atom      9.90494709      1.92742569      4.36553645 Si
     velocity     -1.78033524      3.89212754      0.55090867
   atom      9.83541925      5.88683718      4.27627549 Si
     velocity     -0.35441454     -0.89794971     -1.16868037
   atom     13.59816848      1.92975575      4.27288033 Si
     velocity     -3.63410844      0.82101839     -1.26325681
   atom     13.52574382      5.84878458      4.21867111 Si
     velocity      0.46779358      0.01541214      1.84734341
   atom      2.66000095      7.69350751      5.48280253 Si
     velocity     -0.25233397     -1.44258536      4.05092606
   atom      2.58887397      3.92931523      5.47635226 Si
     velocity     -4.75968588     -0.11207404      3.13081198
   atom      5.15277860      0.04144008      5.48568129 Si
     velocity      1.58989732      1.73609024     -4.60780312
   atom      5.17596972      3.97692752      5.51601052 Si
     velocity      1.36941488     -2.73299713     -4.14673353
   atom     10.48316810      7.71918144      5.52901970 Si
     velocity      1.55791230     -0.73412847     -1.76074401
   atom     10.40590157      3.78399653      5.53838032 Si
     velocity     -2.05692706      3.44970036     -0.38292139
   atom     12.96437092      7.74040015      5.53886179 Si
     velocity      1.88842419     -0.23152929      4.93271100
   atom     12.90803910      3.78007301      5.54128665 Si
     velocity      2.13615064     -2.54983346      5.78472274
   atom      2.18992186      0.13762592      6.87657781 H
     velocity     -8.59466899     -2.87229350     29.15446050
   atom      2.19933642      4.07259816      6.93296015 H
     velocity    -16.19767015     -5.70422095     41.81430058
   atom      5.59624733      0.31525994      6.86338560 H
     velocity      7.26573913     -0.94018646     58.96184701
   atom      6.00296897      4.18654102      6.77537389 H
     velocity      7.02946778     20.99125521     61.19063670
   atom     10.28137682      0.01434566      7.15249223 H
     velocity     11.07838235     10.63254433    -23.29858465
   atom      9.65950708      3.96229386      6.97303890 H
     velocity      2.48470674      2.33394747    -36.17492750
   atom     13.62173825      0.08657957      6.89627757 H
     velocity     -8.94992576     -1.46027906    -42.08463366
   atom     13.65361429      4.08246962      6.79924264 H
     velocity    -15.35253078      3.73857177    -37.38664389
   atom      9.98508297      4.61123557 13.5 H
     velocity     136.1072564     0.00000000     -136.1072564
     initial_moment 1
